147
100
61
12
27
45
3
44
44
7
9
49
26
20
19
11
16
16
19
54
5
11
50
20
14
6
74
16
8
6
55
46
22
12
28
7
14
70
31
57
29
66
18
13
5
30
2
1
71
59
40
15
72
30
14
19
51
10
16
25
60
28
16
44
56
56
58
4
50
16
45
65
18
6
45
49
54
26
17
44
61
22
29
25
53
6
11
27
7
61
26
71
11
47
46
3
11
19
3
65
40
40
75
46
28
66
14
7
17
18
6
20
29
20
28
16
57
8
5
68
39
39
21
51
51
6
3
71
3
34
18
23
29
62
7
75
22
45
7
20
37
1
75
11
62
35
33
28
3
